FILENAME:   /home/mcs001/s132664/testsets/IP/miplib2017/neos-498623.mps.gz
SETTINGS:   settings_final_nopeek_norelabel_extend_norestarts
TIMELIMIT:  7200
OUTPUTNAME: final_miplib_symretope_if_extended_generating_set_cpx_v802__settings_final_nopeek_norelabel_extend_norestarts__1__
BINNAME:    bin/sbcs.linux.x86_64.gnu.opt.cpx
BASENAME:   neos-498623.mps.gz
SEED:       1
@01 /home/mcs001/s132664/testsets/IP/miplib2017/neos-498623.mps.gz ===========
@02 neos-498623.mps.gz
@03 1686656377
SCIP version 8.0.2 [precision: 8 byte] [memory: block] [mode: optimized] [LP solver: CPLEX 20.1.0.0] [GitHash: 5f0473c]
Copyright (C) 2002-2022 Konrad-Zuse-Zentrum fuer Informationstechnik Berlin (ZIB)

Symretope propagation methods - (c) Jasper van Doornmalen, Christopher Hojny.
[GitHash: 2fd0484]

reading parameter file <../settings/settings_final_nopeek_norelabel_extend_norestarts.set> ...

Changed settings:
limits/time = 7200
limits/restarts = 0
misc/usesymmetry = 1
randomization/randomseedshift = 1
constraints/orbisack/sepafreq = -1
constraints/symresack/sepafreq = -1
propagating/symmetry/addsymresacks = TRUE
propagating/symmetry/detectsubgroups = FALSE
propagating/symmetry/relabelsymretopes = 0
propagating/symmetry/extendgenerators = TRUE
propagating/symmetry/ofsymcomptiming = 0
constraints/symretope/sepafreq = -1
constraints/symretope/peek = FALSE


solving problem ...

original problem has 9861 variables (8500 bin, 0 int, 0 impl, 1361 cont) and 2047 constraints
presolving:
(round 1, fast)       93 del vars, 94 del conss, 0 add conss, 67 chg bounds, 8 chg sides, 8 chg coeffs, 0 upgd conss, 0 impls, 1071 clqs
(round 2, fast)       751 del vars, 98 del conss, 0 add conss, 67 chg bounds, 10 chg sides, 10 chg coeffs, 0 upgd conss, 0 impls, 1071 clqs
(round 3, fast)       753 del vars, 98 del conss, 0 add conss, 681 chg bounds, 10 chg sides, 10 chg coeffs, 0 upgd conss, 0 impls, 1071 clqs
(round 4, exhaustive) 753 del vars, 743 del conss, 0 add conss, 681 chg bounds, 579 chg sides, 10 chg coeffs, 0 upgd conss, 0 impls, 1071 clqs
(round 5, fast)       1179 del vars, 743 del conss, 0 add conss, 681 chg bounds, 579 chg sides, 10 chg coeffs, 0 upgd conss, 0 impls, 1071 clqs
(round 6, exhaustive) 1179 del vars, 743 del conss, 0 add conss, 681 chg bounds, 579 chg sides, 10 chg coeffs, 970 upgd conss, 0 impls, 1071 clqs
(round 7, medium)     1184 del vars, 747 del conss, 0 add conss, 681 chg bounds, 579 chg sides, 10 chg coeffs, 970 upgd conss, 3 impls, 1070 clqs
   (0.5s) probing: 81/8489 (1.0%) - 0 fixings, 0 aggregations, 4 implications, 0 bound changes
   (0.5s) probing aborted: 50/50 successive totally useless probings
   (0.5s) symmetry computation started: requiring (bin +, int +, cont +), (fixed: bin -, int -, cont -)
   (0.8s) symmetry computation finished: 74 generators found (max: 1500, log10 of symmetry group size: 26.9)
(round 8, exhaustive) 1237 del vars, 795 del conss, 323 add conss, 681 chg bounds, 579 chg sides, 10 chg coeffs, 970 upgd conss, 7 impls, 1070 clqs
   (1.0s) probing: 86/8489 (1.0%) - 0 fixings, 0 aggregations, 4 implications, 0 bound changes
   (1.0s) probing aborted: 50/50 successive totally useless probings
presolving (9 rounds: 9 fast, 5 medium, 4 exhaustive):
 1237 deleted vars, 795 deleted constraints, 323 added constraints, 684 tightened bounds, 0 added holes, 579 changed sides, 10 changed coefficients
 7 implications, 1070 cliques
presolved problem has 8624 variables (8437 bin, 0 int, 187 impl, 0 cont) and 1575 constraints
    966 constraints of type <setppc>
    334 constraints of type <linear>
    265 constraints of type <orbitope>
     10 constraints of type <symretope>
transformed objective value is always integral (scale: 0.1)
Presolving Time: 1.00

 time | node  | left  |LP iter|LP it/n|mem/heur|mdpt |vars |cons |rows |cuts |sepa|confs|strbr|  dualbound   | primalbound  |  gap   | compl. 
 15.7s|     1 |     0 |  1066 |     - |   190M |   0 |8624 |1756 |1300 |   0 |  0 | 184 |   0 | 1.600000e+01 |      --      |    Inf | unknown
o16.1s|     1 |     0 |  2146 |     - |feaspump|   0 |8624 |1758 |1300 |   0 |  0 | 186 |   0 | 1.600000e+01 | 2.570000e+01 |  60.62%| unknown
 16.7s|     1 |     0 |  2148 |     - |   193M |   0 |8624 |1758 |1301 |   1 |  1 | 186 |   0 | 1.600000e+01 | 2.570000e+01 |  60.62%| unknown
 16.8s|     1 |     0 |  2148 |     - |   193M |   0 |8624 |1759 |1281 |   1 |  1 | 187 |   0 | 1.600000e+01 | 2.570000e+01 |  60.62%| unknown
 16.9s|     1 |     0 |  2150 |     - |   193M |   0 |8624 |1739 |1282 |   2 |  2 | 187 |   0 | 1.600000e+01 | 2.570000e+01 |  60.62%| unknown
 19.3s|     1 |     2 |  6360 |     - |   195M |   0 |8624 |1919 |1282 |   2 |  4 | 372 |  13 | 1.600000e+01 | 2.570000e+01 |  60.62%| unknown
 51.6s|   100 |    95 | 32817 | 310.3 |   223M |  19 |8624 |2330 |1299 | 163 |  1 | 799 | 808 | 1.600000e+01 | 2.570000e+01 |  60.62%| unknown
d52.1s|   109 |   104 | 33504 | 290.8 |linesear|  19 |8624 |2395 |1312 |   0 |  1 | 864 | 808 | 1.600000e+01 | 2.430000e+01 |  51.87%| unknown
d57.3s|   159 |   142 | 41713 | 250.7 |conflict|  19 |8624 |2362 |1313 |   0 |  1 | 941 | 852 | 1.600000e+01 | 2.170000e+01 |  35.62%| unknown
 60.9s|   200 |   175 | 47162 | 226.5 |   253M |  19 |8624 |2425 |   0 | 386 |  0 |1005 | 852 | 1.600000e+01 | 2.170000e+01 |  35.62%| unknown
L63.1s|   223 |   194 | 48407 | 208.6 |    alns|  21 |8624 |2434 |1315 | 415 |  2 |1014 | 852 | 1.600000e+01 | 2.090000e+01 |  30.62%| unknown
 67.9s|   300 |   257 | 54270 | 174.5 |   256M |  21 |8624 |2483 |1308 | 527 |  1 |1066 | 852 | 1.600000e+01 | 2.090000e+01 |  30.62%| unknown
d72.2s|   363 |   303 | 58683 | 156.3 |conflict|  21 |8624 |2528 |1316 |   0 |  4 |1111 | 872 | 1.600000e+01 | 2.080000e+01 |  30.00%| unknown
d73.0s|   377 |   315 | 59863 | 153.6 |fracdivi|  21 |8624 |2531 |1312 |   0 |  2 |1116 | 872 | 1.600000e+01 | 2.070000e+01 |  29.37%| unknown
 75.1s|   400 |   332 | 61776 | 149.6 |   270M |  21 |8624 |2543 |1314 | 682 |  2 |1128 | 872 | 1.600000e+01 | 2.070000e+01 |  29.37%|   1.46%
 time | node  | left  |LP iter|LP it/n|mem/heur|mdpt |vars |cons |rows |cuts |sepa|confs|strbr|  dualbound   | primalbound  |  gap   | compl. 
 82.8s|   500 |   412 | 69677 | 135.4 |   273M |  22 |8624 |2648 |1299 | 843 |  1 |1236 | 896 | 1.604167e+01 | 2.070000e+01 |  29.04%|   2.01%
d90.7s|   550 |   397 | 81876 | 145.3 |guideddi|  22 |8624 |2767 |1315 |   0 |  2 |1387 | 896 | 1.610000e+01 | 1.960000e+01 |  21.74%|   2.47%
 98.5s|   600 |   447 | 96185 | 157.1 |   280M |  22 |8624 |2929 |1320 |1174 |  1 |1596 | 896 | 1.625833e+01 | 1.960000e+01 |  20.55%|   2.75%
d 104s|   631 |   445 |102401 | 159.2 |pscostdi|  22 |8624 |2981 |1319 |   0 |  1 |1663 | 896 | 1.625833e+01 | 1.870000e+01 |  15.02%|   3.52%
d 108s|   659 |   430 |109295 | 162.9 |pscostdi|  22 |8624 |3003 |1310 |   0 |  1 |1718 | 896 | 1.625833e+01 | 1.860000e+01 |  14.40%|   4.01%
  117s|   700 |   460 |117586 | 165.2 |   285M |  22 |8624 |3083 |1328 |1537 |  7 |1831 | 896 | 1.625833e+01 | 1.860000e+01 |  14.40%|   5.11%
d 124s|   752 |   435 |129798 | 170.0 |linesear|  22 |8624 |3229 |1318 |   0 |  1 |2025 | 896 | 1.625833e+01 | 1.770000e+01 |   8.87%|   7.52%
d 130s|   786 |   326 |140343 | 176.1 |fracdivi|  22 |8624 |3206 |1316 |   0 |  1 |2095 | 896 | 1.625833e+01 | 1.730000e+01 |   6.41%|  10.56%
d 130s|   791 |   316 |140913 | 175.7 |conflict|  22 |8624 |3193 |1303 |   0 |  1 |2118 | 896 | 1.625833e+01 | 1.690000e+01 |   3.95%|  11.36%
d 132s|   797 |   299 |141935 | 175.7 |conflict|  22 |8624 |3069 |1309 |   0 |  1 |2134 | 896 | 1.625833e+01 | 1.670000e+01 |   2.72%|  21.24%
  132s|   800 |   300 |142138 | 175.3 |   292M |  22 |8624 |3069 |1313 |1925 |  0 |2134 | 896 | 1.625833e+01 | 1.670000e+01 |   2.72%|  21.27%
d 135s|   823 |   291 |145063 | 173.9 |distribu|  22 |8624 |3081 |1312 |   0 |  2 |2302 | 962 | 1.626019e+01 | 1.660000e+01 |   2.09%|  23.97%
  137s|   900 |   300 |147245 | 161.5 |   295M |  26 |8624 |3261 |1315 |1993 |  2 |2512 | 986 | 1.626019e+01 | 1.660000e+01 |   2.09%|  24.08%
  141s|  1000 |   305 |149989 | 148.0 |   295M |  30 |8624 |3612 |1315 |2000 |  1 |2878 |1029 | 1.626019e+01 | 1.660000e+01 |   2.09%|  24.19%

SCIP Status        : problem is solved [optimal solution found]
Solving Time (sec) : 144.08
Solving Nodes      : 1061
Primal Bound       : +1.66000000000000e+01 (27 solutions)
Dual Bound         : +1.66000000000000e+01
Gap                : 0.00 %
SCIP Status        : problem is solved [optimal solution found]
Total Time         :     144.18
  solving          :     144.08
  presolving       :       1.00 (included in solving)
  reading          :       0.11
  copying          :       1.77 (56 #copies) (minimal 0.03, maximal 0.04, average 0.03)
Original Problem   :
  Problem name     : neos-498623
  Variables        : 9861 (8500 binary, 0 integer, 0 implicit integer, 1361 continuous)
  Constraints      : 2047 initial, 2047 maximal
  Objective        : minimize, 8557 non-zeros (abs.min = 0.7, abs.max = 100)
Presolved Problem  :
  Problem name     : t_neos-498623
  Variables        : 8624 (8437 binary, 0 integer, 187 implicit integer, 0 continuous)
  Constraints      : 1575 initial, 3866 maximal
  Objective        : minimize, 7652 non-zeros (abs.min = 1, abs.max = 1003)
  Nonzeros         : 292762 constraint, 47311 clique table
Presolvers         :   ExecTime  SetupTime  Calls  FixedVars   AggrVars   ChgTypes  ChgBounds   AddHoles    DelCons    AddCons   ChgSides   ChgCoefs
  boundshift       :       0.00       0.00      0          0          0          0          0          0          0          0          0          0
  convertinttobin  :       0.00       0.00      0          0          0          0          0          0          0          0          0          0
  domcol           :       0.05       0.00      2          0          0          0          0          0          0          0          0          0
  dualagg          :       0.00       0.00      0          0          0          0          0          0          0          0          0          0
  dualcomp         :       0.00       0.00      0          0          0          0          0          0          0          0          0          0
  dualinfer        :       0.00       0.00      0          0          0          0          0          0          0          0          0          0
  dualsparsify     :       0.03       0.00      1          0          0          0          0          0          0          0          0          0
  gateextraction   :       0.00       0.00      0          0          0          0          0          0          0          0          0          0
  implics          :       0.00       0.00      5          0          0          0          0          0          0          0          0          0
  inttobinary      :       0.00       0.00      0          0          0          0          0          0          0          0          0          0
  qpkktref         :       0.00       0.00      0          0          0          0          0          0          0          0          0          0
  redvub           :       0.00       0.00      0          0          0          0          0          0          0          0          0          0
  sparsify         :       0.05       0.00      1          0          0          0          0          0          0          0          0          0
  stuffing         :       0.00       0.00      0          0          0          0          0          0          0          0          0          0
  trivial          :       0.00       0.00      9          0          0          0          0          0          0          0          0          0
  tworowbnd        :       0.00       0.00      0          0          0          0          0          0          0          0          0          0
  dualfix          :       0.00       0.00      9       1090          0          0          0          0          0          0          0          0
  genvbounds       :       0.00       0.00      0          0          0          0          0          0          0          0          0          0
  probing          :       0.10       0.00      2          0          0          0          0          0          0          0          0          0
  pseudoobj        :       0.00       0.00      0          0          0          0          0          0          0          0          0          0
  symmetry         :       0.40       0.00      1         52          0          0          0          0         48        323          0          0
  vbounds          :       0.01       0.00      1          0          0          0          0          0          0          0          0          0
  varbound         :       0.00       0.00      2          0          0          0          0          0          3          0          0          0
  knapsack         :       0.00       0.00      0          0          0          0          0          0          0          0          0          0
  setppc           :       0.03       0.00      8          5          0          0          0          0          1          0          0          0
  linear           :       0.21       0.03     13          0         90          0        684          0        743          0        579         10
  orbitope         :       0.00       0.00      1          0          0          0          0          0          0          0          0          0
  symretope        :       0.00       0.00      1          0          0          0          0          0          0          0          0          0
  logicor          :       0.00       0.00      0          0          0          0          0          0          0          0          0          0
  bounddisjunction :       0.00       0.00      0          0          0          0          0          0          0          0          0          0
  benders          :       0.00       0.00      0          0          0          0          0          0          0          0          0          0
  components       :       0.06       0.00      1          0          0          0          0          0          0          0          0          0
  root node        :          -          -      -       2912          -          -       4221          -          -          -          -          -
Constraints        :     Number  MaxNumber  #Separate #Propagate    #EnfoLP    #EnfoRelax  #EnfoPS    #Check   #ResProp    Cutoffs    DomReds       Cuts    Applied      Conss   Children
  benderslp        :          0          0          0          0       1002          0          0         98          0          0          0          0          0          0          0
  integral         :          0          0          0          0       1002          0          0         98          0          1        436          0          0       1219       1804
  knapsack         :          0+         5          0      12498          0          0          0          0        318          4       2376          0          0          0          0
  setppc           :        966+      1091          3      25040          0          0          0         74      56838         73     123750          0          0          0          0
  linear           :        334+       343          3      24967          0          0          0         27      12216         13      40014          0          0          0          0
  orbitope         :        265        265          0      24790          0          0          0         27      11484        240      15321          0          0          0          0
  symretope        :         10         10          0       1163          0          0          0         27          5          0          3          0          0          0          0
  logicor          :          0+      1836          3       3457          0          0          0          0        150         64        683          0          0          0          0
  bounddisjunction :          0+       658          0       2530          0          0          0          0         42         32         96          0          0          0          0
  benders          :          0          0          0          0          0          0          0         28          0          0          0          0          0          0          0
  countsols        :          0          0          0          0          0          0          0         28          0          0          0          0          0          0          0
  components       :          0          0          0          0          0          0          0          0          0          0          0          0          0          0          0
Constraint Timings :  TotalTime  SetupTime   Separate  Propagate     EnfoLP     EnfoPS     EnfoRelax   Check    ResProp    SB-Prop
  benderslp        :       0.00       0.00       0.00       0.00       0.00       0.00       0.00       0.00       0.00       0.00
  integral         :      23.53       0.00       0.00       0.00      23.53       0.00       0.00       0.01       0.00       0.00
  knapsack         :       0.03       0.00       0.00       0.02       0.00       0.00       0.00       0.00       0.00       0.00
  setppc           :       1.47       0.00       0.01       0.85       0.00       0.00       0.00       0.00       0.03       0.58
  linear           :       0.49       0.03       0.01       0.36       0.00       0.00       0.00       0.01       0.02       0.06
  orbitope         :      38.30       0.00       0.00      32.77       0.00       0.00       0.00       0.00       0.08       5.45
  symretope        :       0.03       0.00       0.00       0.02       0.00       0.00       0.00       0.00       0.00       0.00
  logicor          :       0.10       0.00       0.00       0.08       0.00       0.00       0.00       0.00       0.00       0.02
  bounddisjunction :       0.07       0.00       0.00       0.06       0.00       0.00       0.00       0.00       0.00       0.00
  benders          :       0.00       0.00       0.00       0.00       0.00       0.00       0.00       0.00       0.00       0.00
  countsols        :       0.00       0.00       0.00       0.00       0.00       0.00       0.00       0.00       0.00       0.00
  components       :       0.00       0.00       0.00       0.00       0.00       0.00       0.00       0.00       0.00       0.00
Propagators        : #Propagate   #ResProp    Cutoffs    DomReds
  dualfix          :          2          0          0          0
  genvbounds       :          0          0          0          0
  nlobbt           :          0          0          0          0
  obbt             :          0          0          0          0
  probing          :          0          0          0          0
  pseudoobj        :       3944          0          0          0
  redcost          :       2748          0          0     115994
  rootredcost      :         14          0          0       3402
  symmetry         :          0          0          0          0
  vbounds          :       4405          0          0          0
Propagator Timings :  TotalTime  SetupTime   Presolve  Propagate    ResProp    SB-Prop
  dualfix          :       0.01       0.00       0.00       0.00       0.00       0.00
  genvbounds       :       0.01       0.00       0.00       0.01       0.00       0.00
  nlobbt           :       0.00       0.00       0.00       0.00       0.00       0.00
  obbt             :       0.00       0.00       0.00       0.00       0.00       0.00
  probing          :       0.10       0.00       0.10       0.00       0.00       0.00
  pseudoobj        :       0.09       0.00       0.00       0.09       0.00       0.00
  redcost          :       1.39       0.00       0.00       1.39       0.00       0.00
  rootredcost      :       0.02       0.00       0.00       0.01       0.00       0.00
  symmetry         :       0.41       0.00       0.40       0.01       0.00       0.00
  vbounds          :       0.14       0.00       0.01       0.13       0.00       0.00
Orbital fixing     :
  vars fixed to 0  :          0
  vars fixed to 1  :          0
Conflict Analysis  :       Time      Calls    Success    DomReds  Conflicts   Literals    Reconvs ReconvLits   Dualrays   Nonzeros   LP Iters   (pool size: [10000,10000])
  propagation      :       0.08        410        396          -       2133      112.5         11       27.2          -          -          -
  infeasible LP    :       0.04         15         15          -         92       76.9          2       29.5         16      508.9          0
  bound exceed. LP :       1.99        205        205          -       2177      165.3          5       18.4          1     1970.0       2077
  strong branching :       0.00          0          0          -          0        0.0          0        0.0          -          -          0
  pseudo solution  :       0.00          0          0          -          0        0.0          0        0.0          -          -          -
  applied globally :       0.41          -          -          0       3123       67.0          -          -         17          -          -
  applied locally  :          -          -          -          0          0        0.0          -          -          0          -          -
Separators         :   ExecTime  SetupTime      Calls  RootCalls    Cutoffs    DomReds  FoundCuts ViaPoolAdd  DirectAdd    Applied ViaPoolApp  DirectApp      Conss
  cut pool         :       2.62          -        637          5          -          -      12567      12082          -          -          -          -          -    (maximal pool size:       4197)
  aggregation      :       2.41       0.00        289          3          0          0        539       3482          0       1144       1144          0          0
  > cmir           :          -          -          -          -          -          -          -       1077          0        137        137          0          -
  > flowcover      :          -          -          -          -          -          -          -       2400          0       1004       1004          0          -
  > knapsackcover  :          -          -          -          -          -          -          -          5          0          3          3          0          -
  cgmip            :       0.00       0.00          0          0          0          0          0          0          0          0          0          0          0
  clique           :       0.16       0.00          3          3          0          0          5          4          0          0          0          0          0
  closecuts        :       0.00       0.00          0          0          0          0          0          0          0          0          0          0          0
  convexproj       :       0.00       0.00          0          0          0          0          0          0          0          0          0          0          0
  disjunctive      :       0.00       0.00          0          0          0          0          0          0          0          0          0          0          0
  eccuts           :       0.00       0.00          0          0          0          0          0          0          0          0          0          0          0
  gauge            :       0.00       0.00          0          0          0          0          0          0          0          0          0          0          0
  gomory           :      18.70       0.00        259          3          0          0      11088       7604          0        773        773          0          0
  > gomorymi       :          -          -          -          -          -          -          -       4216          0        418        418          0          -
  > strongcg       :          -          -          -          -          -          -          -       3388          0        355        355          0          -
  impliedbounds    :       0.11       0.00        289          3          0          1         22         70          0         52         52          0          0
  interminor       :       0.00       0.00          0          0          0          0          0          0          0          0          0          0          0
  intobj           :       0.00       0.00          0          0          0          0          0          0          0          0          0          0          0
  mcf              :       0.01       0.00          1          1          0          0          0          0          0          0          0          0          0
  minor            :       0.00       0.00          0          0          0          0          0          0          0          0          0          0          0
  mixing           :       0.00       0.00        289          3          0          0          0          0          0          0          0          0          0
  oddcycle         :       0.00       0.00          0          0          0          0          0          0          0          0          0          0          0
  rapidlearning    :      10.68       0.00         48          1          0       3042          0          0          0          0          0          0          8
  rlt              :       0.00       0.00          3          3          0          0          0          0          0          0          0          0          0
  zerohalf         :       2.09       0.00        259          3          0          0        913        922          0         99         99          0          0
Cutselectors       :   ExecTime  SetupTime      Calls  RootCalls   Selected     Forced   Filtered  RootSelec   RootForc   RootFilt 
  hybrid           :       0.03       0.00        310          2       2070          0       9904          2          0          1
Pricers            :   ExecTime  SetupTime      Calls       Vars
  problem variables:       0.00          -          0          0
Branching Rules    :   ExecTime  SetupTime   BranchLP  BranchExt   BranchPS    Cutoffs    DomReds       Cuts      Conss   Children
  allfullstrong    :       0.00       0.00          0          0          0          0          0          0          0          0
  cloud            :       0.00       0.00          0          0          0          0          0          0          0          0
  distribution     :       0.00       0.00          0          0          0          0          0          0          0          0
  fullstrong       :       0.00       0.00          0          0          0          0          0          0          0          0
  inference        :       0.00       0.00          0          0          0          0          0          0          0          0
  leastinf         :       0.00       0.00          0          0          0          0          0          0          0          0
  lookahead        :       0.00       0.00          0          0          0          0          0          0          0          0
  mostinf          :       0.00       0.00          0          0          0          0          0          0          0          0
  multaggr         :       0.00       0.00          0          0          0          0          0          0          0          0
  nodereopt        :       0.00       0.00          0          0          0          0          0          0          0          0
  pscost           :       0.00       0.00          0          0          0          0          0          0          0          0
  random           :       0.00       0.00          0          0          0          0          0          0          0          0
  relpscost        :      23.53       0.00       1002          0          0          1        436          0       1228       1804
  vanillafullstrong:       0.00       0.00          0          0          0          0          0          0          0          0
Primal Heuristics  :   ExecTime  SetupTime      Calls      Found       Best
  LP solutions     :       0.00          -          -          0          0
  relax solutions  :       0.00          -          -          0          0
  pseudo solutions :       0.00          -          -          0          0
  strong branching :       0.01          -          -          0          0
  actconsdiving    :       0.00       0.00          0          0          0
  adaptivediving   :       1.87       0.00          5          0          0
  alns             :       1.20       0.00          4          1          1
  bound            :       0.00       0.00          0          0          0
  clique           :       0.17       0.00          1          0          0
  coefdiving       :       0.00       0.00          0          0          0
  completesol      :       0.00       0.00          0          0          0
  conflictdiving   :       3.76       0.00         24          4          4
  crossover        :       0.07       0.00          1          0          0
  dins             :       0.00       0.00          0          0          0
  distributiondivin:       1.89       0.00         12          1          1
  dps              :       0.00       0.00          0          0          0
  dualval          :       0.00       0.00          0          0          0
  farkasdiving     :       0.71       0.00          1          0          0
  feaspump         :       0.57       0.00          2          1          1
  fixandinfer      :       0.00       0.00          0          0          0
  fracdiving       :       3.45       0.00         12          2          2
  gins             :       0.05       0.00          0          0          0
  guideddiving     :       5.68       0.00         15          1          1
  indicator        :       0.00       0.00          0          0          0
  intdiving        :       0.00       0.00          0          0          0
  intshifting      :       0.00       0.00          0          0          0
  linesearchdiving :       2.50       0.00         15          2          2
  localbranching   :       0.00       0.00          0          0          0
  locks            :       4.08       0.00          1          0          0
  lpface           :       1.68       0.00          1          0          0
  mpec             :       0.00       0.00          0          0          0
  multistart       :       0.00       0.00          0          0          0
  mutation         :       0.00       0.00          0          0          0
  nlpdiving        :       0.00       0.00          0          0          0
  objpscostdiving  :       6.54       0.00          6          4          0
  octane           :       0.00       0.00          0          0          0
  ofins            :       0.00       0.00          0          0          0
  oneopt           :       0.09       0.00         14          0          0
  padm             :       0.00       0.00          0          0          0
  proximity        :       0.00       0.00          0          0          0
  pscostdiving     :       2.98       0.00         16          2          2
  randrounding     :       0.30       0.00         65          0          0
  rens             :       0.15       0.00          1          0          0
  reoptsols        :       0.00       0.00          0          0          0
  repair           :       0.00       0.00          0          0          0
  rins             :       0.18       0.00          2          2          0
  rootsoldiving    :       1.75       0.00          8          7          0
  rounding         :       0.29       0.00        482          0          0
  shiftandpropagate:       0.22       0.00          1          0          0
  shifting         :       1.07       0.00        252          0          0
  simplerounding   :       0.00       0.00          0          0          0
  subnlp           :       0.00       0.00          0          0          0
  trivial          :       0.02       0.00          2          0          0
  trivialnegation  :       0.00       0.00          0          0          0
  trustregion      :       0.00       0.00          0          0          0
  trysol           :       0.00       0.00          0          0          0
  twoopt           :       0.00       0.00          0          0          0
  undercover       :       0.00       0.00          0          0          0
  vbounds          :       9.93       0.00          1          0          0
  veclendiving     :       3.36       0.00          9          0          0
  zeroobj          :       0.00       0.00          0          0          0
  zirounding       :       0.09       0.00        900          0          0
  other solutions  :          -          -          -          0          -
LP                 :       Time      Calls Iterations  Iter/call   Iter/sec  Time-0-It Calls-0-It    ItLimit
  primal LP        :       5.31        158          0       0.00       0.00       5.31        158
  dual LP          :      10.68       1821      82930      55.96    7764.16       0.61        339
  lex dual LP      :       0.00          0          0       0.00          -
  barrier LP       :       0.00          0          0       0.00          -       0.00          0
  resolve instable :       0.00          0          0       0.00          -
  diving/probing LP:      12.77        997      68961      69.17    5401.79
  strong branching :      12.58       1054     106166     100.73    8435.93          -          -         60
    (at root node) :          -         13       4104     315.69          -
  conflict analysis:       0.58        208       2077       9.99    3574.40
B&B Tree           :
  number of runs   :          1
  nodes            :       1061 (902 internal, 159 leaves)
  feasible leaves  :          0
  infeas. leaves   :         56
  objective leaves :        103
  nodes (total)    :       1061 (902 internal, 159 leaves)
  nodes left       :          0
  max depth        :         30
  max depth (total):         30
  backtracks       :        222 (20.9%)
  early backtracks :          0 (0.0%)
  nodes exc. ref.  :          0 (0.0%)
  delayed cutoffs  :        332
  repropagations   :        353 (8513 domain reductions, 19 cutoffs)
  avg switch length:       4.24
  switching time   :       6.44
Root Node          :
  First LP value   : +1.60000000000000e+01
  First LP Iters   :       1013 (6786.59 Iter/sec)
  First LP Time    :       0.15
  Final Dual Bound : +1.66000000000000e+01
  Final Root Iters :       2097
  Root LP Estimate : +1.77649046562150e+01
Solution           :
  Solutions found  :         27 (14 improvements)
  First Solution   : +2.57000000000000e+01   (in run 1, after 1 nodes, 16.12 seconds, depth 0, found by <feaspump>)
  Gap First Sol.   :      60.62 %
  Gap Last Sol.    :       2.09 %
  Primal Bound     : +1.66000000000000e+01   (in run 1, after 823 nodes, 134.65 seconds, depth 58, found by <distributiondiving>)
  Dual Bound       : +1.66000000000000e+01
  Gap              :       0.00 %
Integrals          :      Total       Avg%
  primal-dual      :    4497.94      31.22
  primal-ref       :          -          - (not evaluated)
  dual-ref         :          -          - (not evaluated)
written solution information to file <results/final_miplib_symretope_if_extended_generating_set_cpx_v802__settings_final_nopeek_norelabel_extend_norestarts__1__neos-498623.mps.gz.sol>
@04 1686656521
